Please solve the following SAT Problem encoded in DIMACS format, provide line of thoughts, write your final answer as a single solution at the end of response with header 'answer: ' : 
p cnf 10 65
1 -10 -7 0
5 3 6 0
-10 6 8 0
-3 -7 -4 0
6 5 -9 0
-2 5 -9 0
8 -6 5 0
-2 -1 3 0
6 -7 8 0
3 10 -9 0
5 -4 8 0
-10 7 -1 0
5 8 6 0
3 6 -4 0
-4 -2 3 0
1 8 6 0
-10 -4 -7 0
9 -10 -4 0
-3 8 5 0
3 6 5 0
-7 -10 -4 0
10 -7 -4 0
3 -4 1 0
-9 -4 -7 0
-10 3 1 0
9 6 -4 0
3 8 -5 0
4 -2 -6 0
-3 -2 8 0
-10 6 8 0
-10 -2 -4 0
-10 -9 8 0
8 6 5 0
-10 5 -4 0
1 5 -10 0
-10 3 -5 0
1 5 6 0
-6 5 2 0
5 -9 3 0
9 -2 6 0
7 -2 -9 0
8 4 3 0
-10 -2 -9 0
-4 -2 10 0
-8 5 3 0
2 -7 3 0
9 -10 -2 0
3 -9 -4 0
1 8 -6 0
1 6 5 0
7 8 6 0
5 1 6 0
6 -7 9 0
-7 -3 -2 0
10 6 5 0
6 3 -7 0
3 -1 8 0
5 1 -2 0
-9 -6 -4 0
3 8 -10 0
3 -2 5 0
-8 1 5 0
1 -7 -3 0
-10 1 6 0
7 1 8 0

